; benchmark generated from python API
(set-info :status unknown)
(declare-fun strlen_72_64 () (_ BitVec 64))
(declare-fun args_0_8 () (_ BitVec 8))
(declare-fun strlen_75_64 () (_ BitVec 64))
(declare-fun args_1_8 () (_ BitVec 8))
(declare-fun sigaction_oldact_171_1216 () (_ BitVec 1216))
(declare-fun sigaction_oldact_175_1216 () (_ BitVec 1216))
(declare-fun sigaction_oldact_185_1216 () (_ BitVec 1216))
(declare-fun sigaction_oldact_201_1216 () (_ BitVec 1216))
(declare-fun sigaction_oldact_235_1216 () (_ BitVec 1216))
(declare-fun sigaction_oldact_301_1216 () (_ BitVec 1216))
(declare-fun sigaction_oldact_434_1216 () (_ BitVec 1216))
(declare-fun sigaction_oldact_703_1216 () (_ BitVec 1216))
(declare-fun sigaction_oldact_1247_1216 () (_ BitVec 1216))
(declare-fun sigaction_oldact_2360_1216 () (_ BitVec 1216))
(assert
 (let (($x351 (= (_ bv1 64) strlen_72_64)))
 (not $x351)))
(assert
 (let ((?x82 (bvadd (_ bv576460752303357824 64) strlen_72_64)))
 (let (($x69 (= (_ bv0 8) args_0_8)))
 (let ((?x46 (ite $x69 (_ bv576460752303357824 64) (_ bv576460752303357825 64))))
 (= ?x46 ?x82)))))
(assert
 (let (($x347 (= (_ bv0 8) args_1_8)))
 (let ((?x355 (ite $x347 (_ bv576460752303357826 64) (_ bv576460752303357827 64))))
 (let ((?x356 (bvsub ?x355 (_ bv576460752303357826 64))))
 (= ?x356 strlen_75_64)))))
(assert
 (let ((?x1831 ((_ extract 127 120) sigaction_oldact_171_1216)))
 (let ((?x2319 (bvand ?x1831 (_ bv4 8))))
 (= (_ bv0 8) ?x2319))))
(assert
 (let ((?x2264 ((_ extract 127 120) sigaction_oldact_175_1216)))
 (let ((?x2349 (bvand ?x2264 (_ bv4 8))))
 (and (distinct (_ bv0 8) ?x2349) true))))
(assert
 (let ((?x2741 ((_ extract 127 120) sigaction_oldact_185_1216)))
 (let ((?x2766 (bvand ?x2741 (_ bv4 8))))
 (and (distinct (_ bv0 8) ?x2766) true))))
(assert
 (let ((?x3722 ((_ extract 127 120) sigaction_oldact_201_1216)))
 (let ((?x3747 (bvand ?x3722 (_ bv4 8))))
 (and (distinct (_ bv0 8) ?x3747) true))))
(assert
 (let ((?x5856 ((_ extract 127 120) sigaction_oldact_235_1216)))
 (let ((?x5876 (bvand ?x5856 (_ bv4 8))))
 (and (distinct (_ bv0 8) ?x5876) true))))
(assert
 (let ((?x10387 ((_ extract 127 120) sigaction_oldact_301_1216)))
 (let ((?x10404 (bvand ?x10387 (_ bv4 8))))
 (and (distinct (_ bv0 8) ?x10404) true))))
(assert
 (let ((?x20532 ((_ extract 127 120) sigaction_oldact_434_1216)))
 (let ((?x20557 (bvand ?x20532 (_ bv4 8))))
 (and (distinct (_ bv0 8) ?x20557) true))))
(assert
 (let ((?x39356 ((_ extract 127 120) sigaction_oldact_703_1216)))
 (let ((?x39381 (bvand ?x39356 (_ bv4 8))))
 (and (distinct (_ bv0 8) ?x39381) true))))
(assert
 (let ((?x72270 ((_ extract 127 120) sigaction_oldact_1247_1216)))
 (let ((?x72295 (bvand ?x72270 (_ bv4 8))))
 (and (distinct (_ bv0 8) ?x72295) true))))
(assert
 (let ((?x100992 ((_ extract 127 120) sigaction_oldact_2360_1216)))
 (let ((?x136227 (bvand ?x100992 (_ bv4 8))))
 (and (distinct (_ bv0 8) ?x136227) true))))
(minimize strlen_75_64)
(minimize args_0_8)
(maximize sigaction_oldact_201_1216)
(minimize sigaction_oldact_201_1216)
(maximize sigaction_oldact_703_1216)
(minimize args_1_8)
(minimize strlen_72_64)
(minimize sigaction_oldact_185_1216)
(minimize sigaction_oldact_1247_1216)
(maximize args_1_8)
(minimize sigaction_oldact_171_1216)
(maximize sigaction_oldact_2360_1216)
(maximize args_0_8)
(minimize sigaction_oldact_703_1216)
(maximize strlen_75_64)
(minimize sigaction_oldact_434_1216)
(check-sat)
(get-objectives)
